c uprop, v00.0, 
c reading from data/prog408.c.cnf
c done reading: 0.002404
p cnf 140 651
-45 -66 0
-45 -62 0
45 62 66 0
-39 62 66 0
-39 -62 -66 0
39 62 -66 0
39 -62 66 0
45 -57 0
-55 -57 0
-45 55 57 0
-45 -50 55 0
45 -50 -55 0
45 50 55 0
-45 50 -55 0
-46 57 0
-43 -46 0
43 46 -57 0
-41 43 -57 0
-41 -43 57 0
41 43 57 0
41 -43 -57 0
-40 46 0
-37 -40 0
37 40 -46 0
37 -46 -64 0
-37 46 -64 0
37 46 64 0
-37 -46 64 0
40 -68 0
-59 -68 0
-40 59 68 0
-40 59 -69 0
40 -59 -69 0
40 59 69 0
-40 -59 69 0
68 -70 0
-52 -70 0
52 -68 70 0
52 -68 -71 0
-52 68 -71 0
52 68 71 0
-52 -68 71 0
70 -72 0
-48 -72 0
48 -70 72 0
48 -70 -73 0
-48 70 -73 0
48 70 73 0
-48 -70 73 0
62 -74 0
66 -74 0
-62 -66 74 0
-62 -66 -75 0
62 66 -75 0
-62 66 75 0
62 -66 75 0
-55 -62 76 0
-55 -74 76 0
-62 -74 76 0
55 62 -76 0
55 74 -76 0
62 74 -76 0
55 -76 -77 0
62 -76 -77 0
74 -76 -77 0
-55 76 77 0
-62 76 77 0
-74 76 77 0
-55 -62 -74 77 0
55 62 74 -77 0
-43 -55 78 0
-43 -76 78 0
-55 -76 78 0
43 55 -78 0
43 76 -78 0
55 76 -78 0
43 -78 -79 0
55 -78 -79 0
76 -78 -79 0
-43 78 79 0
-55 78 79 0
-76 78 79 0
-43 -55 -76 79 0
43 55 76 -79 0
-37 -43 80 0
-37 -78 80 0
-43 -78 80 0
37 43 -80 0
37 78 -80 0
43 78 -80 0
-35 37 -80 0
-35 43 -80 0
-35 78 -80 0
35 -37 80 0
35 -43 80 0
35 -78 80 0
35 -37 -43 -78 0
-35 37 43 78 0
34 -37 -59 0
34 -59 -80 0
34 -37 -80 0
-34 37 59 0
-34 59 80 0
-34 37 80 0
-33 -34 59 0
-33 -34 37 0
-33 -34 80 0
33 34 -59 0
33 34 -37 0
33 34 -80 0
33 -37 -59 -80 0
-33 37 59 80 0
32 -52 -59 0
32 -34 -52 0
32 -34 -59 0
-32 52 59 0
-32 34 52 0
-32 34 59 0
-31 -32 52 0
-31 -32 59 0
-31 -32 34 0
31 32 -52 0
31 32 -59 0
31 32 -34 0
31 -34 -52 -59 0
-31 34 52 59 0
30 -48 -52 0
30 -32 -48 0
30 -32 -52 0
-30 48 52 0
-30 32 48 0
-30 32 52 0
-30 48 -65 0
-30 52 -65 0
-30 32 -65 0
30 -48 65 0
30 -52 65 0
30 -32 65 0
-32 -48 -52 65 0
32 48 52 -65 0
48 -61 0
30 -61 0
-30 -48 61 0
-30 -48 -54 0
30 48 -54 0
30 -48 54 0
-30 48 54 0
-42 77 0
-42 66 0
42 -66 -77 0
-36 -66 -77 0
-36 66 77 0
36 66 -77 0
36 -66 77 0
58 -62 -79 0
-42 58 -79 0
-42 58 -62 0
-58 62 79 0
42 -58 79 0
42 -58 62 0
-51 -58 79 0
-51 -58 62 0
42 -51 -58 0
51 58 -79 0
51 58 -62 0
-42 51 58 0
-42 51 -62 -79 0
42 -51 62 79 0
-35 47 -55 0
-35 47 -58 0
47 -55 -58 0
35 -47 55 0
35 -47 58 0
-47 55 58 0
-29 35 -47 0
-29 -47 55 0
-29 -47 58 0
29 -35 47 0
29 47 -55 0
29 47 -58 0
29 -35 -55 -58 0
-29 35 55 58 0
28 -33 -43 0
28 -33 -47 0
28 -43 -47 0
-28 33 43 0
-28 33 47 0
-28 43 47 0
-27 -28 33 0
-27 -28 43 0
-27 -28 47 0
27 28 -33 0
27 28 -43 0
27 28 -47 0
27 -33 -43 -47 0
-27 33 43 47 0
26 -31 -37 0
26 -28 -31 0
26 -28 -37 0
-26 31 37 0
-26 28 31 0
-26 28 37 0
-25 -26 31 0
-25 -26 37 0
-25 -26 28 0
25 26 -31 0
25 26 -37 0
25 26 -28 0
25 -28 -31 -37 0
-25 28 31 37 0
24 -59 -65 0
24 -26 -65 0
24 -26 -59 0
-24 59 65 0
-24 26 65 0
-24 26 59 0
-23 -24 65 0
-23 -24 59 0
-23 -24 26 0
23 24 -65 0
23 24 -59 0
23 24 -26 0
23 -26 -59 -65 0
-23 26 59 65 0
22 -52 -54 0
22 -24 -54 0
22 -24 -52 0
-22 52 54 0
-22 24 54 0
-22 24 52 0
-21 -22 54 0
-21 -22 52 0
-21 -22 24 0
21 22 -54 0
21 22 -52 0
21 22 -24 0
21 -24 -52 -54 0
-21 24 52 54 0
20 -48 -61 0
20 -22 -61 0
20 -22 -48 0
-20 48 61 0
-20 22 61 0
-20 22 48 0
-19 -20 61 0
-19 -20 48 0
-19 -20 22 0
19 20 -61 0
19 20 -48 0
19 20 -22 0
19 -22 -48 -61 0
-19 22 48 61 0
-18 -66 0
-18 -75 0
18 66 75 0
-17 66 75 0
-17 -66 -75 0
17 -66 75 0
17 66 -75 0
-16 18 0
-16 -36 0
16 -18 36 0
-15 -18 36 0
-15 18 -36 0
15 18 36 0
15 -18 -36 0
-14 16 0
-14 -51 0
14 -16 51 0
-16 51 -81 0
16 -51 -81 0
16 51 81 0
-16 -51 81 0
14 -82 0
-29 -82 0
-14 29 82 0
-14 29 -83 0
14 -29 -83 0
14 29 83 0
-14 -29 83 0
82 -84 0
-27 -84 0
27 -82 84 0
27 -82 -85 0
-27 82 -85 0
27 82 85 0
-27 -82 85 0
84 -86 0
-25 -86 0
25 -84 86 0
25 -84 -87 0
-25 84 -87 0
25 84 87 0
-25 -84 87 0
86 -88 0
-23 -88 0
23 -86 88 0
23 -86 -89 0
-23 86 -89 0
23 86 89 0
-23 -86 89 0
88 -90 0
-21 -90 0
21 -88 90 0
21 -88 -91 0
-21 88 -91 0
21 88 91 0
-21 -88 91 0
90 -92 0
-19 -92 0
19 -90 92 0
19 -90 -93 0
-19 90 -93 0
19 90 93 0
-19 -90 93 0
92 -94 0
-20 -94 0
20 -92 94 0
20 -92 -95 0
-20 92 -95 0
20 92 95 0
-20 -92 95 0
-96 -98 0
96 98 0
-99 -101 0
99 101 0
-102 -104 0
102 104 0
-105 -107 0
105 107 0
-108 -110 0
108 110 0
-111 -113 0
111 113 0
-114 -116 0
114 116 0
96 -117 0
-96 117 0
-96 -118 0
96 118 0
-96 -99 119 0
-99 -117 119 0
-96 -117 119 0
96 99 -119 0
99 117 -119 0
96 117 -119 0
99 -119 -120 0
96 -119 -120 0
117 -119 -120 0
-99 119 120 0
-96 119 120 0
-117 119 120 0
-96 -99 -117 120 0
96 99 117 -120 0
-99 -102 121 0
-102 -119 121 0
-99 -119 121 0
99 102 -121 0
102 119 -121 0
99 119 -121 0
102 -121 -122 0
99 -121 -122 0
119 -121 -122 0
-102 121 122 0
-99 121 122 0
-119 121 122 0
-99 -102 -119 122 0
99 102 119 -122 0
-102 -105 123 0
-105 -121 123 0
-102 -121 123 0
102 105 -123 0
105 121 -123 0
102 121 -123 0
105 -123 -124 0
102 -123 -124 0
121 -123 -124 0
-105 123 124 0
-102 123 124 0
-121 123 124 0
-102 -105 -121 124 0
102 105 121 -124 0
-105 -108 125 0
-108 -123 125 0
-105 -123 125 0
105 108 -125 0
108 123 -125 0
105 123 -125 0
108 -125 -126 0
105 -125 -126 0
123 -125 -126 0
-108 125 126 0
-105 125 126 0
-123 125 126 0
-105 -108 -123 126 0
105 108 123 -126 0
-108 -111 127 0
-111 -125 127 0
-108 -125 127 0
108 111 -127 0
111 125 -127 0
108 125 -127 0
111 -127 -128 0
108 -127 -128 0
125 -127 -128 0
-111 127 128 0
-108 127 128 0
-125 127 128 0
-108 -111 -125 128 0
108 111 125 -128 0
-111 -114 129 0
-114 -127 129 0
-111 -127 129 0
111 114 -129 0
114 127 -129 0
111 127 -129 0
114 -129 -130 0
111 -129 -130 0
127 -129 -130 0
-114 129 130 0
-111 129 130 0
-127 129 130 0
-111 -114 -127 130 0
111 114 127 -130 0
114 -131 0
129 -131 0
-114 -129 131 0
-67 -114 -129 0
-67 114 129 0
67 -114 129 0
67 114 -129 0
-63 120 0
63 -120 0
-56 -120 0
56 120 0
44 -96 -122 0
44 -63 -122 0
44 -63 -96 0
-44 96 122 0
-44 63 122 0
-44 63 96 0
-38 -44 122 0
-38 -44 96 0
-38 -44 63 0
38 44 -122 0
38 44 -96 0
38 44 -63 0
38 -63 -96 -122 0
-38 63 96 122 0
60 -99 -124 0
-44 60 -124 0
-44 60 -99 0
-60 99 124 0
44 -60 124 0
44 -60 99 0
-53 -60 124 0
-53 -60 99 0
44 -53 -60 0
53 60 -124 0
53 60 -99 0
-44 53 60 0
-44 53 -99 -124 0
44 -53 99 124 0
49 -102 -126 0
49 -60 -126 0
49 -60 -102 0
-49 102 126 0
-49 60 126 0
-49 60 102 0
-49 126 -132 0
-49 102 -132 0
-49 60 -132 0
49 -126 132 0
49 -102 132 0
49 -60 132 0
-60 -102 -126 132 0
60 102 126 -132 0
97 -105 -128 0
-49 97 -128 0
-49 97 -105 0
-97 105 128 0
49 -97 128 0
49 -97 105 0
-97 -100 128 0
-97 -100 105 0
49 -97 -100 0
97 100 -128 0
97 100 -105 0
-49 97 100 0
-49 100 -105 -128 0
49 -100 105 128 0
103 -108 -130 0
-97 103 -130 0
-97 103 -108 0
-103 108 130 0
97 -103 130 0
97 -103 108 0
-103 -106 130 0
-103 -106 108 0
97 -103 -106 0
103 106 -130 0
103 106 -108 0
-97 103 106 0
-97 106 -108 -130 0
97 -106 108 130 0
-67 109 -111 0
-67 -103 109 0
-103 109 -111 0
67 -109 111 0
67 103 -109 0
103 -109 111 0
67 -109 -112 0
-109 111 -112 0
103 -109 -112 0
-67 109 112 0
109 -111 112 0
-103 109 112 0
-67 -103 -111 112 0
67 103 111 -112 0
-114 115 -131 0
-109 115 -131 0
-109 -114 115 0
114 -115 131 0
109 -115 131 0
109 114 -115 0
-115 131 -133 0
114 -115 -133 0
109 -115 -133 0
115 -131 133 0
-114 115 133 0
-109 115 133 0
-109 -114 -131 133 0
109 114 131 -133 0
-118 -134 0
118 134 0
-56 -135 0
56 135 0
-38 -136 0
38 136 0
-53 -137 0
53 137 0
-132 -138 0
132 138 0
-100 -139 0
100 139 0
-106 -140 0
106 140 0
-13 -112 0
13 112 0
-12 -133 0
12 133 0
-11 -115 0
11 115 0
-10 66 0
-10 118 0
10 -66 -118 0
-66 118 0
66 -118 0
9 -56 -75 0
9 -10 -75 0
9 -10 -56 0
-9 56 75 0
-9 10 75 0
-9 10 56 0
-9 75 0
-9 56 0
-9 10 0
10 56 75 0
8 -36 -38 0
8 -9 -36 0
8 -9 -38 0
-8 36 38 0
-8 9 36 0
-8 9 38 0
-8 36 0
-8 38 0
-8 9 0
9 36 38 0
7 -51 -53 0
7 -8 -51 0
7 -8 -53 0
-7 51 53 0
-7 8 51 0
-7 8 53 0
7 -51 0
7 -53 0
7 -8 0
-8 -51 -53 0
6 -29 -132 0
6 -7 -29 0
6 -7 -132 0
-6 29 132 0
-6 7 29 0
-6 7 132 0
6 -29 0
6 -132 0
6 -7 0
-7 -29 -132 0
5 -27 -100 0
5 -6 -27 0
5 -6 -100 0
-5 27 100 0
-5 6 27 0
-5 6 100 0
-5 27 0
-5 100 0
-5 6 0
6 27 100 0
4 -25 -106 0
4 -5 -25 0
4 -5 -106 0
-4 25 106 0
-4 5 25 0
-4 5 106 0
-4 25 0
-4 106 0
-4 5 0
5 25 106 0
3 -23 -112 0
3 -4 -23 0
3 -4 -112 0
-3 23 112 0
-3 4 23 0
-3 4 112 0
3 -23 0
3 -112 0
3 -4 0
-4 -23 -112 0
2 -21 -133 0
2 -3 -21 0
2 -3 -133 0
-2 21 133 0
-2 3 21 0
-2 3 133 0
2 -21 0
2 -133 0
2 -3 0
-3 -21 -133 0
1 -19 -115 0
1 -2 -19 0
1 -2 -115 0
-1 19 115 0
-1 2 19 0
-1 2 115 0
1 -19 0
1 -115 0
1 -2 0
-2 -19 -115 0
-1 -20 0
1 -20 0
-1 20 0
